n = 7;
m = 14;
a = [| 8, 8, 10, 7, 7, 7, 3
     | 9, 2, 2, 0, 10, 1, 0
     | 8, 6, 10, 12, 5, 11, 12
     | 0, 0, 8, 9, 4, 14, 3
     | 1, 10, 12, 11, 1, 14, 0
     | 6, 0, 2, 0, 12, 14, 1
     | 13, 13, 13, 6, 5, 0, 7|];
s = [ 16, 11, 11, 5, 10, 11, 14, 15, 9, 14, 13, 12, 18, 8];
